MLW08
Position Depot: Random
Horizon for Depot: Large
Position of customers: Mixt
Distribution of the demand: Medium
Width of time windows: Wide
Distribution of the service: Small

VEHICLE 
NUMBER 	 CAPACITY 
 5 	 	 350 
 
CUSTOMER
CUST NO. 	 XCOORD.  	 YCOORD. 	 DEMAND 	 READY TIME 	 DUE DATE 	 SERVICE TIME 
 0 	 	 767 	 	 843 	 	 0 	 	 0 	 	 4518 	 	 0 
  1 	 	 733 	 	 616 	 	 4 	 	 809 	 	 1202 	 	 62 
  2 	 	 20 	 	 651 	 	 6 	 	 1741 	 	 2215 	 	 73 
  3 	 	 802 	 	 363 	 	 5 	 	 4018 	 	 4490 	 	 89 
  4 	 	 554 	 	 849 	 	 7 	 	 2173 	 	 2659 	 	 90 
  5 	 	 36 	 	 670 	 	 1 	 	 862 	 	 1333 	 	 75 
  6 	 	 549 	 	 880 	 	 10 	 	 647 	 	 1139 	 	 87 
  7 	 	 641 	 	 807 	 	 69 	 	 2985 	 	 3482 	 	 81 
  8 	 	 722 	 	 356 	 	 10 	 	 4041 	 	 4434 	 	 77 
  9 	 	 57 	 	 672 	 	 5 	 	 3669 	 	 4138 	 	 82 
  10 	 	 775 	 	 627 	 	 6 	 	 933 	 	 1256 	 	 70 
  11 	 	 44 	 	 596 	 	 6 	 	 947 	 	 1238 	 	 59 
  12 	 	 13 	 	 707 	 	 9 	 	 3164 	 	 3426 	 	 82 
  13 	 	 596 	 	 878 	 	 3 	 	 2094 	 	 2370 	 	 52 
  14 	 	 495 	 	 803 	 	 6 	 	 1222 	 	 1685 	 	 58 
  15 	 	 959 	 	 477 	 	 5 	 	 3630 	 	 3895 	 	 58 
  16 	 	 3 	 	 841 	 	 7 	 	 4295 	 	 4518 	 	 76 
  17 	 	 773 	 	 566 	 	 10 	 	 2923 	 	 3240 	 	 66 
  18 	 	 549 	 	 871 	 	 50 	 	 766 	 	 1141 	 	 88 
  19 	 	 791 	 	 343 	 	 7 	 	 3992 	 	 4237 	 	 58 
  20 	 	 538 	 	 894 	 	 6 	 	 3326 	 	 3803 	 	 99 
  21 	 	 590 	 	 822 	 	 6 	 	 2435 	 	 2765 	 	 50 
  22 	 	 823 	 	 331 	 	 55 	 	 3924 	 	 4137 	 	 51 
  23 	 	 664 	 	 589 	 	 10 	 	 1589 	 	 2035 	 	 98 
  24 	 	 987 	 	 203 	 	 3 	 	 3165 	 	 3500 	 	 98 
  25 	 	 545 	 	 791 	 	 9 	 	 2333 	 	 2660 	 	 84 
  26 	 	 15 	 	 571 	 	 7 	 	 637 	 	 879 	 	 77 
  27 	 	 755 	 	 621 	 	 9 	 	 1571 	 	 1862 	 	 82 
  28 	 	 819 	 	 327 	 	 4 	 	 1229 	 	 1619 	 	 90 
  29 	 	 859 	 	 400 	 	 1 	 	 3253 	 	 3608 	 	 81 
  30 	 	 720 	 	 600 	 	 8 	 	 1460 	 	 1719 	 	 90 
  31 	 	 588 	 	 843 	 	 76 	 	 3908 	 	 4282 	 	 65 
  32 	 	 48 	 	 690 	 	 4 	 	 960 	 	 1183 	 	 76 
  33 	 	 84 	 	 639 	 	 8 	 	 805 	 	 1264 	 	 76 
  34 	 	 17 	 	 568 	 	 5 	 	 662 	 	 878 	 	 77 
  35 	 	 865 	 	 667 	 	 8 	 	 3238 	 	 3512 	 	 57 
  36 	 	 755 	 	 246 	 	 54 	 	 1373 	 	 1757 	 	 58 
  37 	 	 447 	 	 853 	 	 8 	 	 3117 	 	 3503 	 	 96 
  38 	 	 808 	 	 442 	 	 1 	 	 517 	 	 805 	 	 87 
  39 	 	 824 	 	 306 	 	 67 	 	 2773 	 	 3040 	 	 91 
  40 	 	 856 	 	 416 	 	 1 	 	 305 	 	 727 	 	 72 
  41 	 	 58 	 	 557 	 	 10 	 	 1960 	 	 2428 	 	 75 
  42 	 	 62 	 	 666 	 	 3 	 	 1083 	 	 1371 	 	 90 
  43 	 	 579 	 	 810 	 	 63 	 	 2880 	 	 3188 	 	 91 
  44 	 	 831 	 	 323 	 	 9 	 	 617 	 	 940 	 	 50 
  45 	 	 736 	 	 629 	 	 78 	 	 236 	 	 554 	 	 97 
  46 	 	 598 	 	 827 	 	 6 	 	 719 	 	 968 	 	 57 
  47 	 	 718 	 	 598 	 	 7 	 	 41 	 	 417 	 	 71 
  48 	 	 606 	 	 880 	 	 63 	 	 2860 	 	 3177 	 	 60 
  49 	 	 782 	 	 306 	 	 1 	 	 326 	 	 590 	 	 87 
  50 	 	 504 	 	 708 	 	 90 	 	 287 	 	 787 	 	 50 
  51 	 	 549 	 	 319 	 	 10 	 	 1015 	 	 1490 	 	 60 
  52 	 	 880 	 	 780 	 	 4 	 	 3814 	 	 4203 	 	 54 
  53 	 	 971 	 	 15 	 	 7 	 	 733 	 	 938 	 	 89 
  54 	 	 235 	 	 385 	 	 3 	 	 4234 	 	 4518 	 	 63 
  55 	 	 606 	 	 55 	 	 9 	 	 1916 	 	 2263 	 	 80 
  56 	 	 604 	 	 359 	 	 2 	 	 1988 	 	 2322 	 	 66 
  57 	 	 515 	 	 729 	 	 4 	 	 2773 	 	 3082 	 	 55 
  58 	 	 552 	 	 361 	 	 9 	 	 2212 	 	 2594 	 	 79 
  59 	 	 80 	 	 373 	 	 3 	 	 3367 	 	 3644 	 	 93 
  60 	 	 776 	 	 549 	 	 4 	 	 -138 	 	 323 	 	 79 
  61 	 	 532 	 	 211 	 	 84 	 	 4318 	 	 4518 	 	 60 
  62 	 	 854 	 	 856 	 	 3 	 	 -35 	 	 184 	 	 93 
  63 	 	 817 	 	 898 	 	 3 	 	 3881 	 	 4267 	 	 52 
  64 	 	 707 	 	 544 	 	 76 	 	 213 	 	 647 	 	 80 
  65 	 	 302 	 	 76 	 	 7 	 	 2097 	 	 2440 	 	 92 
  66 	 	 677 	 	 586 	 	 3 	 	 3145 	 	 3424 	 	 82 
  67 	 	 662 	 	 641 	 	 100 	 	 4031 	 	 4329 	 	 55 
  68 	 	 650 	 	 460 	 	 70 	 	 1662 	 	 1913 	 	 96 
  69 	 	 111 	 	 752 	 	 1 	 	 1009 	 	 1321 	 	 56 
  70 	 	 586 	 	 395 	 	 3 	 	 1182 	 	 1614 	 	 96 
  71 	 	 340 	 	 284 	 	 7 	 	 407 	 	 773 	 	 55 
  72 	 	 409 	 	 311 	 	 2 	 	 3132 	 	 3335 	 	 61 
  73 	 	 444 	 	 396 	 	 1 	 	 1476 	 	 1952 	 	 92 
  74 	 	 322 	 	 672 	 	 2 	 	 3222 	 	 3580 	 	 67 
  75 	 	 586 	 	 139 	 	 8 	 	 1210 	 	 1684 	 	 58 
  76 	 	 58 	 	 25 	 	 8 	 	 2438 	 	 2796 	 	 67 
  77 	 	 632 	 	 411 	 	 1 	 	 3251 	 	 3721 	 	 94 
  78 	 	 899 	 	 894 	 	 59 	 	 1936 	 	 2289 	 	 89 
  79 	 	 230 	 	 183 	 	 9 	 	 3193 	 	 3496 	 	 95 
  80 	 	 230 	 	 900 	 	 75 	 	 1752 	 	 2024 	 	 78 
  81 	 	 313 	 	 76 	 	 6 	 	 1697 	 	 1940 	 	 87 
  82 	 	 786 	 	 360 	 	 2 	 	 4022 	 	 4518 	 	 81 
  83 	 	 849 	 	 977 	 	 6 	 	 2647 	 	 2852 	 	 60 
  84 	 	 766 	 	 120 	 	 2 	 	 2230 	 	 2662 	 	 92 
  85 	 	 761 	 	 563 	 	 9 	 	 519 	 	 723 	 	 90 
  86 	 	 529 	 	 241 	 	 4 	 	 3194 	 	 3471 	 	 71 
  87 	 	 675 	 	 255 	 	 9 	 	 987 	 	 1276 	 	 54 
  88 	 	 91 	 	 438 	 	 8 	 	 3510 	 	 3742 	 	 81 
  89 	 	 757 	 	 405 	 	 10 	 	 115 	 	 481 	 	 52 
  90 	 	 630 	 	 722 	 	 82 	 	 2795 	 	 3022 	 	 75 
  91 	 	 805 	 	 94 	 	 10 	 	 551 	 	 827 	 	 62 
  92 	 	 753 	 	 64 	 	 85 	 	 424 	 	 857 	 	 91 
  93 	 	 173 	 	 31 	 	 6 	 	 1442 	 	 1642 	 	 80 
  94 	 	 731 	 	 622 	 	 5 	 	 1349 	 	 1712 	 	 100 
  95 	 	 570 	 	 960 	 	 7 	 	 3495 	 	 3835 	 	 77 
  96 	 	 532 	 	 780 	 	 82 	 	 1891 	 	 2179 	 	 90 
  97 	 	 721 	 	 976 	 	 3 	 	 1841 	 	 2159 	 	 65 
  98 	 	 393 	 	 917 	 	 3 	 	 3911 	 	 4234 	 	 70 
  99 	 	 50 	 	 836 	 	 9 	 	 2627 	 	 2900 	 	 57 
  100 	 	 43 	 	 216 	 	 8 	 	 4052 	 	 4488 	 	 99 
 